c Random 3-CNF over 30 variables and 60 clauses
c Generated with `cnfgen`
c (C) 2012-2016 Massimo Lauria <lauria.massimo@gmail.com>
c https://massimolauria.github.io/cnfgen
c
c COMMAND LINE: cnfgen --output tmp-3-30-60.dimacs --output-format dimacs randkcnf 3 30 60
c
c sdimacs generated by gen-sdimacs
c
p cnf 30 60
r 0.5 1 2 3 4 5 6 7 8 9 10 11 12 13 14 15 0
e  16 17 18 19 20 21 22 23 24 25 26 27 28 29 30 0
3 -25 -29 0
3 15 17 0
-10 -17 -18 0
3 4 14 0
11 -18 23 0
-11 12 -14 0
2 -19 -26 0
4 -18 -25 0
-2 -9 -30 0
-2 4 -13 0
-21 22 27 0
7 -9 -29 0
1 15 16 0
4 25 -30 0
-1 22 30 0
2 11 -18 0
5 13 -21 0
-4 25 -27 0
4 5 -13 0
-7 -15 -19 0
-11 28 29 0
10 16 -27 0
1 16 -24 0
-3 27 28 0
-21 -24 -28 0
-7 9 28 0
5 -26 -30 0
-12 -15 -25 0
-10 20 -25 0
-5 -6 30 0
10 22 23 0
7 11 -18 0
-7 19 23 0
-10 -16 30 0
12 18 21 0
-4 -11 24 0
-22 -23 30 0
6 19 25 0
-1 -13 -21 0
-5 8 21 0
3 -4 7 0
11 24 -30 0
8 -24 28 0
1 -11 -24 0
-6 10 28 0
7 9 -21 0
-2 6 21 0
16 -20 21 0
5 11 12 0
3 16 27 0
10 -15 24 0
2 -6 -26 0
-3 14 27 0
1 -21 24 0
8 -23 -27 0
-25 -29 30 0
12 -23 27 0
-5 15 28 0
14 -17 -24 0
-9 11 -29 0
